c Another CNF problem instance
c For distributed SAT solving
c Medium-sized problem with 15 variables and 30 clauses
p cnf 15 30
1 2 -3 0
-2 4 5 0
3 -4 6 0
-5 7 -8 0
6 -7 9 0
8 -9 10 0
-10 11 -12 0
12 -13 14 0
-14 15 1 0
-15 2 -11 0
1 -6 13 0
-3 8 -14 0
4 -9 15 0
-5 10 -1 0
7 -12 3 0
-8 13 -4 0
9 -14 5 0
-10 15 -6 0
11 1 -7 0
-12 2 8 0
13 -3 -9 0
-14 4 10 0
15 -5 -11 0
1 6 12 0
-2 -7 13 0
3 8 -14 0
-4 -9 15 0
5 10 1 0
-6 -11 -2 0
7 12 3 0